************************************************************************
file with basedata            : md359_.bas
initial value random generator: 417790909
************************************************************************
projects                      :  1
jobs (incl. supersource/sink ):  22
horizon                       :  154
RESOURCES
  - renewable                 :  2   R
  - nonrenewable              :  2   N
  - doubly constrained        :  0   D
************************************************************************
PROJECT INFORMATION:
pronr.  #jobs rel.date duedate tardcost  MPM-Time
    1     20      0       40        8       40
************************************************************************
PRECEDENCE RELATIONS:
jobnr.    #modes  #successors   successors
   1        1          3           2   3   4
   2        3          3           5   8  16
   3        3          3           7   8  16
   4        3          2           5   8
   5        3          2           6   9
   6        3          1           7
   7        3          2          10  17
   8        3          2           9  11
   9        3          3          13  17  20
  10        3          2          11  20
  11        3          1          12
  12        3          1          13
  13        3          2          14  18
  14        3          2          15  19
  15        3          1          21
  16        3          3          17  18  20
  17        3          2          19  21
  18        3          2          19  21
  19        3          1          22
  20        3          1          22
  21        3          1          22
  22        1          0        
************************************************************************
REQUESTS/DURATIONS:
jobnr. mode duration  R 1  R 2  N 1  N 2
------------------------------------------------------------------------
  1      1     0       0    0    0    0
  2      1     2       6    5    6    8
         2     7       6    2    6    7
         3     9       6    2    5    7
  3      1     3       5    6    5    8
         2     3       8    9    4    7
         3     5       4    3    2    6
  4      1     3       9    8    4    9
         2     3      10    6    5    9
         3     3      10    6    8    8
  5      1     2       1    8    5    4
         2     8       1    7    5    2
         3     8       1    6    5    4
  6      1     4      10   10    3    2
         2     9       7    7    3    1
         3    10       5    5    3    1
  7      1     5       6    6    3    5
         2     7       5    5    3    5
         3     9       3    4    2    4
  8      1     4       8    9    9    5
         2     8       7    6    7    2
         3     9       5    6    7    2
  9      1     4       6    5    7    5
         2     6       5    3    4    4
         3     7       4    2    2    1
 10      1     3       2    9    7   10
         2     4       2    9    6    7
         3     6       2    8    3    3
 11      1     1       2    9    5    6
         2     2       2    8    4    5
         3     6       1    6    3    5
 12      1     5       4    7    9    1
         2     9       4    6    6    1
         3    10       2    6    4    1
 13      1     4       6    1    9    7
         2     8       6    1    9    6
         3     8       2    1    9    7
 14      1     7      10    3    3    6
         2     7      10    4    4    4
         3    10      10    2    3    2
 15      1     5       3    9    2    6
         2     8       3    7    1    5
         3     9       2    7    1    5
 16      1     3      10    8    7    7
         2     5       9    7    6    7
         3     9       9    7    5    7
 17      1     2      10    4   10    4
         2     6       9    3   10    3
         3     7       9    3    9    2
 18      1     3       9    2    5    6
         2     3       8    2    5    9
         3     8       6    2    5    6
 19      1     1       7    4    9    7
         2     3       6    2    8    7
         3     4       6    1    8    7
 20      1     3       6    7    9    6
         2     4       5    6    7    5
         3     8       4    4    6    5
 21      1     1       6    9    9    9
         2     5       3    7    7    8
         3     9       1    7    6    7
 22      1     0       0    0    0    0
************************************************************************
RESOURCEAVAILABILITIES:
  R 1  R 2  N 1  N 2
   24   22  102   96
************************************************************************
MAXIMAL LAGS:
from  to  type  delay
    1   12   ES      0
    1    2   ES      0
    2   12   ES      0
    1    3   ES      0
    3   12   ES      0
    1    4   ES      0
    4   12   ES      0
    1    5   ES      0
    5   12   ES      0
    1    6   ES      0
    6   12   ES      0
    1    7   ES      0
    7   12   ES      0
    1    8   ES      0
    8   12   ES      0
    1    9   ES      0
    9   12   ES      0
    1   10   ES      0
   10   12   ES      0
    1   11   ES      0
   11   12   ES      0
    1   12   ES      0
    2    5   SS    -10
    2    5   SE     -8
    2    5   ES      6
    2    5   EE      9
    2    8   SS     10
    2    8   SE     -4
    2    8   ES     -3
    2    8   EE     -9
    2   16   SS     -3
    2   16   SE      7
    2   16   ES     12
    2   16   EE     -7
    3    7   SS     -2
    3    7   SE     -6
    3    7   ES      9
    3    7   EE     -9
    3    8   SS      1
    3    8   SE     -4
    3    8   ES      7
    3    8   EE      5
    3   16   SS     -7
    3   16   SE      4
    3   16   ES     12
    3   16   EE      9
    4    5   SS     12
    4    5   SE     -5
    4    5   ES      4
    4    5   EE     12
    4    8   SS      8
    4    8   SE     -2
    4    8   ES      9
    4    8   EE      6
    5    6   SS      3
    5    6   SE     -4
    5    6   ES      2
    5    6   EE      2
    5    9   SS      1
    5    9   SE     -1
    9    5   SE      0
    5    9   ES      0
    5    9   EE     12
    6    7   SS     -2
    6    7   SE      6
    6    7   ES    -11
    6    7   EE      3
    7   10   SS    -12
    7   10   SE     -1
    7   10   ES     -2
    7   10   EE     -3
    7   17   SS     11
    7   17   SE      7
    7   17   ES     -4
    7   17   EE      8
    8    9   SS     10
    8    9   SE     -6
    8    9   ES      8
    8    9   EE     -3
    8   11   SS     -5
    8   11   SE     12
    8   11   ES      1
    8   11   EE      5
    9   13   SS      3
    9   13   SE      9
    9   13   ES      3
    9   13   EE     -9
    9   17   SS     -2
    9   17   SE      1
    9   17   ES      6
    9   17   EE     -7
    9   20   SS     -8
    9   20   SE     11
    9   20   ES    -12
    9   20   EE      6
   10   11   SS     -4
   10   11   SE     12
   10   11   ES      7
   10   11   EE    -11
   10   20   SS      3
   10   20   SE      0
   10   20   ES     10
   10   20   EE     -5
   12   13   SS     -3
   12   13   SE     -9
   12   13   ES     -1
   12   13   EE     -6
   13   14   SS     -1
   13   14   SE      6
   13   14   ES      2
   13   14   EE      2
   13   18   SS     -9
   13   18   SE    -11
   13   18   ES      9
   13   18   EE    -11
   14   15   SS     -9
   14   15   SE     -9
   14   15   ES     -2
   14   15   EE      8
   14   19   SS     -4
   14   19   SE      2
   14   19   ES      2
   14   19   EE     -5
   15   21   SS     12
   15   21   SE     -3
   15   21   ES      7
   15   21   EE     -4
   16   17   SS     -5
   16   17   SE      9
   16   17   ES    -10
   16   17   EE      9
   16   18   SS     -4
   16   18   SE     10
   16   18   ES      5
   16   18   EE      3
   16   20   SS     -8
   16   20   SE     -7
   16   20   ES     -1
   16   20   EE     -1
   17   19   SS      2
   17   19   SE      4
   17   19   ES     -2
   17   19   EE      0
   17   21   SS     -4
   17   21   SE     -9
   17   21   ES     -5
   17   21   EE     -2
   18   19   SS     -4
   18   19   SE      8
   18   19   ES     11
   18   19   EE      8
   18   21   SS      3
   18   21   SE     -3
   18   21   ES     -9
   18   21   EE      0
   19   22   SS      5
   19   22   SE     -2
   19   22   ES      8
   19   22   EE     -1
   20   22   SS      2
   20   22   SE     -6
   20   22   ES      7
   20   22   EE      9
   21   22   SS     -2
   21   22   SE     -8
   21   22   ES     -5
   21   22   EE     -8
************************************************************************
